# Fe25Ni75 Crystalline FCC: 

# Computation of the band structure.
# First, a SCF density computation, then a non-SCF band structure calculation.

ndtset 2

#Dataset 1 : usual self-consistent calculation
kptopt1 1          # Option for the automatic generation of k points,
                   # taking into account the symmetry  
prtden1  1         # Print the density, for use by dataset 2
tolvrs1  1.0d-18    # This value is way too large for most realistic studies of materials

#Dataset 2 : the band structure
iscf2    -2
getden2  -1
kptopt2  -3
nband2   40
ndivk2   10 10 10 20 10   
kptbounds2  0.0  0.0  0.0 # Gamma point
            0.0  0.5  0.0 # X point
            0.5  0.5  0.0 # M point
            1.0  1.0  1.0 # Gamma point in another cell.
            0.5  0.5  0.5 # R point
            0.0  0.5  0.0 # X point

tolwfr2  1.0d-12
enunit2  1             # Will output the eigenenergies in eV 


# Defination acell
iscf   7
acell 3*6.6901   
xred 0.0 0.0 0.0      # Fe
     1/2 1/2 0.0      # Ni1
     0.0 1/2 1/2      # Ni2
     1/2 0.0 1/2      # Ni3
ntypat 2               # Fe vs Ni
natom 4                # 4 atoms 
typat 1 2 2 2          # 1-Fe vs 2-Ni
znucl 26 28  
nband 45
ecutsm 0.5
ecut   60             # E cut-off SCF       
nstep  70

tsmear 0.0358
occopt 7            #                    
ixc 11             # GGA,Perdew-Burke-Ernzerhof GGA functional 
optforces 2         # tinh luc cuoi cac vong SCF
optstress 1         # tinh ung suat cuoi cac vong SCF

#Definition of the SCF procedure

ngkpt   4  4  4          
nshiftk   4              # Use one copy of grid only (default)
shiftk   0.0 0.0 0.5    
         0.0 0.5 0.0
         0.5 0.0 0.0
         0.5 0.5 0.5


